HUN,8,6,498
5,24,4,27,0,23,2,29,1,27,3,29
2,22,3,27,4,22,5,28,0,26,1,21
2,26,3,23,4,25,5,28,0,21,1,24
5,23,0,27,2,28,3,24,4,26,1,22
4,28,1,21,2,28,0,22,5,24,3,22
5,29,4,23,0,28,2,21,3,26,1,25
4,25,2,22,1,27,5,25,0,22,3,23
1,25,3,23,5,27,4,21,2,25,0,26
